
Gurobi 7.0.2 (mac64, Python) logging started Thu May  2 17:38:03 2019

Optimize a model with 948 rows, 825 columns and 5778 nonzeros
Variable types: 71 continuous, 754 integer (754 binary)
Coefficient statistics:
  Matrix range     [1e+00, 1e+01]
  Objective range  [3e+00, 3e+00]
  Bounds range     [1e+00, 1e+00]
  RHS range        [1e+00, 1e+00]
Presolve removed 58 rows and 58 columns
Presolve time: 0.02s
Presolved: 890 rows, 767 columns, 4966 nonzeros
Variable types: 0 continuous, 767 integer (754 binary)
Found heuristic solution: objective 399.0000000

Root relaxation: objective 1.500000e+02, 230 iterations, 0.01 seconds

    Nodes    |    Current Node    |     Objective Bounds      |     Work
 Expl Unexpl |  Obj  Depth IntInf | Incumbent    BestBd   Gap | It/Node Time

*    0     0               0     150.0000000  150.00000  0.00%     -    0s

Explored 0 nodes (230 simplex iterations) in 0.09 seconds
Thread count was 4 (of 4 available processors)

Solution count 2: 150 399 
Pool objective bound 150

Solve interrupted
Best objective 1.500000000000e+02, best bound 1.500000000000e+02, gap 0.0000%

Gurobi 7.0.2 (mac64, Python) logging started Thu May  2 17:40:17 2019

Optimize a model with 948 rows, 825 columns and 5778 nonzeros
Variable types: 71 continuous, 754 integer (754 binary)
Coefficient statistics:
  Matrix range     [1e+00, 1e+01]
  Objective range  [3e+00, 3e+00]
  Bounds range     [1e+00, 1e+00]
  RHS range        [1e+00, 1e+00]
Presolve removed 58 rows and 58 columns
Presolve time: 0.01s
Presolved: 890 rows, 767 columns, 4966 nonzeros
Variable types: 0 continuous, 767 integer (754 binary)
Found heuristic solution: objective 399.0000000

Root relaxation: objective 1.500000e+02, 230 iterations, 0.01 seconds

    Nodes    |    Current Node    |     Objective Bounds      |     Work
 Expl Unexpl |  Obj  Depth IntInf | Incumbent    BestBd   Gap | It/Node Time

*    0     0               0     150.0000000  150.00000  0.00%     -    0s

Explored 0 nodes (230 simplex iterations) in 0.06 seconds
Thread count was 4 (of 4 available processors)

Solution count 2: 150 399 
Pool objective bound 150

Solve interrupted
Best objective 1.500000000000e+02, best bound 1.500000000000e+02, gap 0.0000%

Gurobi 7.0.2 (mac64, Python) logging started Thu May  2 17:40:42 2019

Optimize a model with 948 rows, 825 columns and 5778 nonzeros
Variable types: 71 continuous, 754 integer (754 binary)
Coefficient statistics:
  Matrix range     [1e+00, 1e+01]
  Objective range  [3e+00, 3e+00]
  Bounds range     [1e+00, 1e+00]
  RHS range        [1e+00, 1e+00]
Presolve removed 58 rows and 58 columns
Presolve time: 0.01s
Presolved: 890 rows, 767 columns, 4966 nonzeros
Variable types: 0 continuous, 767 integer (754 binary)
Found heuristic solution: objective 399.0000000

Root relaxation: objective 1.500000e+02, 230 iterations, 0.01 seconds

    Nodes    |    Current Node    |     Objective Bounds      |     Work
 Expl Unexpl |  Obj  Depth IntInf | Incumbent    BestBd   Gap | It/Node Time

*    0     0               0     150.0000000  150.00000  0.00%     -    0s

Explored 0 nodes (230 simplex iterations) in 0.06 seconds
Thread count was 4 (of 4 available processors)

Solution count 2: 150 399 
Pool objective bound 150

Solve interrupted
Best objective 1.500000000000e+02, best bound 1.500000000000e+02, gap 0.0000%

Gurobi 7.0.2 (mac64, Python) logging started Thu May  2 17:41:33 2019

Optimize a model with 948 rows, 825 columns and 5778 nonzeros
Variable types: 71 continuous, 754 integer (754 binary)
Coefficient statistics:
  Matrix range     [1e+00, 1e+01]
  Objective range  [3e+00, 3e+00]
  Bounds range     [1e+00, 1e+00]
  RHS range        [1e+00, 1e+00]
Presolve removed 58 rows and 58 columns
Presolve time: 0.01s
Presolved: 890 rows, 767 columns, 4966 nonzeros
Variable types: 0 continuous, 767 integer (754 binary)
Found heuristic solution: objective 399.0000000

Root relaxation: objective 1.500000e+02, 230 iterations, 0.01 seconds

    Nodes    |    Current Node    |     Objective Bounds      |     Work
 Expl Unexpl |  Obj  Depth IntInf | Incumbent    BestBd   Gap | It/Node Time

*    0     0               0     150.0000000  150.00000  0.00%     -    0s

Explored 0 nodes (230 simplex iterations) in 0.07 seconds
Thread count was 4 (of 4 available processors)

Solution count 2: 150 399 
Pool objective bound 150

Solve interrupted
Best objective 1.500000000000e+02, best bound 1.500000000000e+02, gap 0.0000%

Gurobi 7.0.2 (mac64, Python) logging started Thu May  2 17:41:55 2019

Optimize a model with 948 rows, 825 columns and 5778 nonzeros
Variable types: 71 continuous, 754 integer (754 binary)
Coefficient statistics:
  Matrix range     [1e+00, 1e+01]
  Objective range  [3e+00, 3e+00]
  Bounds range     [1e+00, 1e+00]
  RHS range        [1e+00, 1e+00]
Presolve removed 58 rows and 58 columns
Presolve time: 0.01s
Presolved: 890 rows, 767 columns, 4966 nonzeros
Variable types: 0 continuous, 767 integer (754 binary)
Found heuristic solution: objective 399.0000000

Root relaxation: objective 1.500000e+02, 230 iterations, 0.01 seconds

    Nodes    |    Current Node    |     Objective Bounds      |     Work
 Expl Unexpl |  Obj  Depth IntInf | Incumbent    BestBd   Gap | It/Node Time

*    0     0               0     150.0000000  150.00000  0.00%     -    0s

Explored 0 nodes (230 simplex iterations) in 0.07 seconds
Thread count was 4 (of 4 available processors)

Solution count 2: 150 399 
Pool objective bound 150

Solve interrupted
Best objective 1.500000000000e+02, best bound 1.500000000000e+02, gap 0.0000%

Gurobi 7.0.2 (mac64, Python) logging started Thu May  2 17:43:23 2019

Optimize a model with 948 rows, 825 columns and 5778 nonzeros
Variable types: 71 continuous, 754 integer (754 binary)
Coefficient statistics:
  Matrix range     [1e+00, 1e+01]
  Objective range  [3e+00, 3e+00]
  Bounds range     [1e+00, 1e+00]
  RHS range        [1e+00, 1e+00]
Presolve removed 58 rows and 58 columns
Presolve time: 0.01s
Presolved: 890 rows, 767 columns, 4966 nonzeros
Variable types: 0 continuous, 767 integer (754 binary)
Found heuristic solution: objective 399.0000000

Root relaxation: objective 1.500000e+02, 230 iterations, 0.01 seconds

    Nodes    |    Current Node    |     Objective Bounds      |     Work
 Expl Unexpl |  Obj  Depth IntInf | Incumbent    BestBd   Gap | It/Node Time

*    0     0               0     150.0000000  150.00000  0.00%     -    0s

Explored 0 nodes (230 simplex iterations) in 0.08 seconds
Thread count was 4 (of 4 available processors)

Solution count 2: 150 399 
Pool objective bound 150

Solve interrupted
Best objective 1.500000000000e+02, best bound 1.500000000000e+02, gap 0.0000%

Gurobi 7.0.2 (mac64, Python) logging started Thu May  2 17:43:41 2019

Optimize a model with 948 rows, 825 columns and 5778 nonzeros
Variable types: 71 continuous, 754 integer (754 binary)
Coefficient statistics:
  Matrix range     [1e+00, 1e+01]
  Objective range  [3e+00, 3e+00]
  Bounds range     [1e+00, 1e+00]
  RHS range        [1e+00, 1e+00]
Presolve removed 58 rows and 58 columns
Presolve time: 0.01s
Presolved: 890 rows, 767 columns, 4966 nonzeros
Variable types: 0 continuous, 767 integer (754 binary)
Found heuristic solution: objective 399.0000000

Root relaxation: objective 1.500000e+02, 230 iterations, 0.01 seconds

    Nodes    |    Current Node    |     Objective Bounds      |     Work
 Expl Unexpl |  Obj  Depth IntInf | Incumbent    BestBd   Gap | It/Node Time

*    0     0               0     150.0000000  150.00000  0.00%     -    0s

Explored 0 nodes (230 simplex iterations) in 0.06 seconds
Thread count was 4 (of 4 available processors)

Solution count 2: 150 399 
Pool objective bound 150

Solve interrupted
Best objective 1.500000000000e+02, best bound 1.500000000000e+02, gap 0.0000%

Gurobi 7.0.2 (mac64, Python) logging started Thu May  2 17:47:24 2019

Optimize a model with 948 rows, 825 columns and 5778 nonzeros
Variable types: 71 continuous, 754 integer (754 binary)
Coefficient statistics:
  Matrix range     [1e+00, 1e+01]
  Objective range  [3e+00, 3e+00]
  Bounds range     [1e+00, 1e+00]
  RHS range        [1e+00, 1e+00]
Presolve removed 58 rows and 58 columns
Presolve time: 0.01s
Presolved: 890 rows, 767 columns, 4966 nonzeros
Variable types: 0 continuous, 767 integer (754 binary)
Found heuristic solution: objective 399.0000000

Root relaxation: objective 1.500000e+02, 230 iterations, 0.01 seconds

    Nodes    |    Current Node    |     Objective Bounds      |     Work
 Expl Unexpl |  Obj  Depth IntInf | Incumbent    BestBd   Gap | It/Node Time

*    0     0               0     150.0000000  150.00000  0.00%     -    0s

Explored 0 nodes (230 simplex iterations) in 0.06 seconds
Thread count was 4 (of 4 available processors)

Solution count 2: 150 399 
Pool objective bound 150

Solve interrupted
Best objective 1.500000000000e+02, best bound 1.500000000000e+02, gap 0.0000%

Gurobi 7.0.2 (mac64, Python) logging started Thu May  2 17:47:49 2019

Optimize a model with 948 rows, 825 columns and 5778 nonzeros
Variable types: 71 continuous, 754 integer (754 binary)
Coefficient statistics:
  Matrix range     [1e+00, 1e+01]
  Objective range  [3e+00, 3e+00]
  Bounds range     [1e+00, 1e+00]
  RHS range        [1e+00, 1e+00]
Presolve removed 58 rows and 58 columns
Presolve time: 0.01s
Presolved: 890 rows, 767 columns, 4966 nonzeros
Variable types: 0 continuous, 767 integer (754 binary)
Found heuristic solution: objective 399.0000000

Root relaxation: objective 1.500000e+02, 230 iterations, 0.01 seconds

    Nodes    |    Current Node    |     Objective Bounds      |     Work
 Expl Unexpl |  Obj  Depth IntInf | Incumbent    BestBd   Gap | It/Node Time

*    0     0               0     150.0000000  150.00000  0.00%     -    0s

Explored 0 nodes (230 simplex iterations) in 0.06 seconds
Thread count was 4 (of 4 available processors)

Solution count 2: 150 399 
Pool objective bound 150

Solve interrupted
Best objective 1.500000000000e+02, best bound 1.500000000000e+02, gap 0.0000%

Gurobi 7.0.2 (mac64, Python) logging started Thu May  2 17:48:16 2019

Optimize a model with 948 rows, 825 columns and 5778 nonzeros
Variable types: 71 continuous, 754 integer (754 binary)
Coefficient statistics:
  Matrix range     [1e+00, 1e+01]
  Objective range  [3e+00, 3e+00]
  Bounds range     [1e+00, 1e+00]
  RHS range        [1e+00, 1e+00]
Presolve removed 58 rows and 58 columns
Presolve time: 0.01s
Presolved: 890 rows, 767 columns, 4966 nonzeros
Variable types: 0 continuous, 767 integer (754 binary)
Found heuristic solution: objective 399.0000000

Root relaxation: objective 1.500000e+02, 230 iterations, 0.01 seconds

    Nodes    |    Current Node    |     Objective Bounds      |     Work
 Expl Unexpl |  Obj  Depth IntInf | Incumbent    BestBd   Gap | It/Node Time

*    0     0               0     150.0000000  150.00000  0.00%     -    0s

Explored 0 nodes (230 simplex iterations) in 0.10 seconds
Thread count was 4 (of 4 available processors)

Solution count 2: 150 399 
Pool objective bound 150

Solve interrupted
Best objective 1.500000000000e+02, best bound 1.500000000000e+02, gap 0.0000%

Gurobi 7.0.2 (mac64, Python) logging started Thu May  2 17:48:23 2019

Optimize a model with 948 rows, 825 columns and 5778 nonzeros
Variable types: 71 continuous, 754 integer (754 binary)
Coefficient statistics:
  Matrix range     [1e+00, 1e+01]
  Objective range  [3e+00, 3e+00]
  Bounds range     [1e+00, 1e+00]
  RHS range        [1e+00, 1e+00]
Presolve removed 58 rows and 58 columns
Presolve time: 0.01s
Presolved: 890 rows, 767 columns, 4966 nonzeros
Variable types: 0 continuous, 767 integer (754 binary)
Found heuristic solution: objective 399.0000000

Root relaxation: objective 1.500000e+02, 230 iterations, 0.01 seconds

    Nodes    |    Current Node    |     Objective Bounds      |     Work
 Expl Unexpl |  Obj  Depth IntInf | Incumbent    BestBd   Gap | It/Node Time

*    0     0               0     150.0000000  150.00000  0.00%     -    0s

Explored 0 nodes (230 simplex iterations) in 0.06 seconds
Thread count was 4 (of 4 available processors)

Solution count 2: 150 399 
Pool objective bound 150

Solve interrupted
Best objective 1.500000000000e+02, best bound 1.500000000000e+02, gap 0.0000%

Gurobi 7.0.2 (mac64, Python) logging started Thu May  2 17:48:44 2019

Optimize a model with 948 rows, 825 columns and 5778 nonzeros
Variable types: 71 continuous, 754 integer (754 binary)
Coefficient statistics:
  Matrix range     [1e+00, 1e+01]
  Objective range  [3e+00, 3e+00]
  Bounds range     [1e+00, 1e+00]
  RHS range        [1e+00, 1e+00]
Presolve removed 58 rows and 58 columns
Presolve time: 0.01s
Presolved: 890 rows, 767 columns, 4966 nonzeros
Variable types: 0 continuous, 767 integer (754 binary)
Found heuristic solution: objective 399.0000000

Root relaxation: objective 1.500000e+02, 230 iterations, 0.01 seconds

    Nodes    |    Current Node    |     Objective Bounds      |     Work
 Expl Unexpl |  Obj  Depth IntInf | Incumbent    BestBd   Gap | It/Node Time

*    0     0               0     150.0000000  150.00000  0.00%     -    0s

Explored 0 nodes (230 simplex iterations) in 0.06 seconds
Thread count was 4 (of 4 available processors)

Solution count 2: 150 399 
Pool objective bound 150

Solve interrupted
Best objective 1.500000000000e+02, best bound 1.500000000000e+02, gap 0.0000%

Gurobi 7.0.2 (mac64, Python) logging started Fri May  3 10:25:53 2019

Optimize a model with 961 rows, 825 columns and 5934 nonzeros
Variable types: 71 continuous, 754 integer (754 binary)
Coefficient statistics:
  Matrix range     [1e+00, 1e+01]
  Objective range  [3e+00, 3e+00]
  Bounds range     [1e+00, 1e+00]
  RHS range        [1e+00, 1e+00]
Presolve removed 58 rows and 58 columns
Presolve time: 0.04s
Presolved: 903 rows, 767 columns, 5122 nonzeros
Variable types: 0 continuous, 767 integer (754 binary)
Found heuristic solution: objective 396.0000000

Root relaxation: objective 1.523333e+02, 439 iterations, 0.03 seconds

    Nodes    |    Current Node    |     Objective Bounds      |     Work
 Expl Unexpl |  Obj  Depth IntInf | Incumbent    BestBd   Gap | It/Node Time

     0     0  152.33333    0   29  396.00000  152.33333  61.5%     -    0s
H    0     0                     165.0000000  152.33333  7.68%     -    0s
H    0     0                     156.0000000  152.33333  2.35%     -    0s

Cutting planes:
  Gomory: 5
  MIR: 1
  Zero half: 5

Explored 0 nodes (614 simplex iterations) in 0.33 seconds
Thread count was 4 (of 4 available processors)

Solution count 3: 156 165 396 
Pool objective bound 153

Solve interrupted
Best objective 1.560000000000e+02, best bound 1.530000000000e+02, gap 1.9231%

Gurobi 7.0.2 (mac64, Python) logging started Fri May  3 11:31:21 2019

Optimize a model with 961 rows, 825 columns and 5934 nonzeros
Variable types: 71 continuous, 754 integer (754 binary)
Coefficient statistics:
  Matrix range     [1e+00, 1e+01]
  Objective range  [3e+00, 3e+00]
  Bounds range     [1e+00, 1e+00]
  RHS range        [1e+00, 1e+00]
Presolve removed 58 rows and 58 columns
Presolve time: 0.01s
Presolved: 903 rows, 767 columns, 5122 nonzeros
Variable types: 0 continuous, 767 integer (754 binary)
Found heuristic solution: objective 396.0000000

Root relaxation: objective 1.523333e+02, 439 iterations, 0.02 seconds

    Nodes    |    Current Node    |     Objective Bounds      |     Work
 Expl Unexpl |  Obj  Depth IntInf | Incumbent    BestBd   Gap | It/Node Time

     0     0  152.33333    0   29  396.00000  152.33333  61.5%     -    0s
H    0     0                     165.0000000  152.33333  7.68%     -    0s
H    0     0                     156.0000000  152.33333  2.35%     -    0s

Cutting planes:
  Gomory: 5
  MIR: 1
  Zero half: 5

Explored 0 nodes (614 simplex iterations) in 0.13 seconds
Thread count was 4 (of 4 available processors)

Solution count 3: 156 165 396 
Pool objective bound 153

Solve interrupted
Best objective 1.560000000000e+02, best bound 1.530000000000e+02, gap 1.9231%

Gurobi 7.0.2 (mac64, Python) logging started Fri May  3 11:32:29 2019

Optimize a model with 961 rows, 825 columns and 5934 nonzeros
Variable types: 71 continuous, 754 integer (754 binary)
Coefficient statistics:
  Matrix range     [1e+00, 1e+01]
  Objective range  [3e+00, 3e+00]
  Bounds range     [1e+00, 1e+00]
  RHS range        [1e+00, 1e+00]
Presolve removed 58 rows and 58 columns
Presolve time: 0.01s
Presolved: 903 rows, 767 columns, 5122 nonzeros
Variable types: 0 continuous, 767 integer (754 binary)
Found heuristic solution: objective 396.0000000

Root relaxation: objective 1.523333e+02, 439 iterations, 0.01 seconds

    Nodes    |    Current Node    |     Objective Bounds      |     Work
 Expl Unexpl |  Obj  Depth IntInf | Incumbent    BestBd   Gap | It/Node Time

     0     0  152.33333    0   29  396.00000  152.33333  61.5%     -    0s
H    0     0                     165.0000000  152.33333  7.68%     -    0s
H    0     0                     156.0000000  152.33333  2.35%     -    0s

Cutting planes:
  Gomory: 5
  MIR: 1
  Zero half: 5

Explored 0 nodes (614 simplex iterations) in 0.10 seconds
Thread count was 4 (of 4 available processors)

Solution count 3: 156 165 396 
Pool objective bound 153

Solve interrupted
Best objective 1.560000000000e+02, best bound 1.530000000000e+02, gap 1.9231%

Gurobi 7.0.2 (mac64, Python) logging started Fri May  3 11:32:48 2019

Optimize a model with 961 rows, 825 columns and 5934 nonzeros
Variable types: 71 continuous, 754 integer (754 binary)
Coefficient statistics:
  Matrix range     [1e+00, 1e+01]
  Objective range  [3e+00, 3e+00]
  Bounds range     [1e+00, 1e+00]
  RHS range        [1e+00, 1e+00]
Presolve removed 58 rows and 58 columns
Presolve time: 0.02s
Presolved: 903 rows, 767 columns, 5122 nonzeros
Variable types: 0 continuous, 767 integer (754 binary)
Found heuristic solution: objective 396.0000000

Root relaxation: objective 1.523333e+02, 439 iterations, 0.01 seconds

    Nodes    |    Current Node    |     Objective Bounds      |     Work
 Expl Unexpl |  Obj  Depth IntInf | Incumbent    BestBd   Gap | It/Node Time

     0     0  152.33333    0   29  396.00000  152.33333  61.5%     -    0s
H    0     0                     165.0000000  152.33333  7.68%     -    0s
H    0     0                     156.0000000  152.33333  2.35%     -    0s

Cutting planes:
  Gomory: 5
  MIR: 1
  Zero half: 5

Explored 0 nodes (614 simplex iterations) in 0.18 seconds
Thread count was 4 (of 4 available processors)

Solution count 3: 156 165 396 
Pool objective bound 153

Solve interrupted
Best objective 1.560000000000e+02, best bound 1.530000000000e+02, gap 1.9231%

Gurobi 7.0.2 (mac64, Python) logging started Fri May  3 11:47:24 2019

Optimize a model with 961 rows, 825 columns and 5934 nonzeros
Variable types: 71 continuous, 754 integer (754 binary)
Coefficient statistics:
  Matrix range     [1e+00, 1e+01]
  Objective range  [3e+00, 3e+00]
  Bounds range     [1e+00, 1e+00]
  RHS range        [1e+00, 1e+00]
Presolve removed 58 rows and 58 columns
Presolve time: 0.02s
Presolved: 903 rows, 767 columns, 5122 nonzeros
Variable types: 0 continuous, 767 integer (754 binary)
Found heuristic solution: objective 402.0000000

Root relaxation: objective 1.500000e+02, 287 iterations, 0.01 seconds

    Nodes    |    Current Node    |     Objective Bounds      |     Work
 Expl Unexpl |  Obj  Depth IntInf | Incumbent    BestBd   Gap | It/Node Time

*    0     0               0     150.0000000  150.00000  0.00%     -    0s

Explored 0 nodes (330 simplex iterations) in 0.12 seconds
Thread count was 4 (of 4 available processors)

Solution count 2: 150 402 
Pool objective bound 150

Solve interrupted
Best objective 1.500000000000e+02, best bound 1.500000000000e+02, gap 0.0000%
